NAME : sample7
TYPE : TSP
DIMENSION : 20
EDGE_WEIGHT_TYPE : EUC_2D
NODE_COORD_SECTION
	0	12,78	-9,59
	1	14,41	9,34
	2	18,67	-3,18
	3	-4,53	11,68
	4	-7,19	18,55
	5	2,18	-11,63
	6	16,73	-1,14
	7	-17,74	-18,25
	8	7,36	-17,8
	9	4,19	12,02
	10	-0,36	15,74
	11	-15,8	-9,36
	12	18,08	-5,5
	13	-3,63	-13,67
	14	3,58	7,57
	15	-8,13	-4,36
	16	1,35	-9,04
	17	-7,8	3,61
	18	7,15	-2,26
	19	-13,48	1,19
EOF